Optimal - objective value 4.00000000
     12 x_0_12                     1         0.0903385458013221
     26 x_1_12                     1                       0
     40 x_2_12                     1                       0
     53 x_3_11                     1                       0
     68 x_4_12                     1                       0
     81 x_5_11                     1         -0.147275025020723
     96 x_6_12                     1         -0.217641084347056
    111 x_7_13                     1         0.466230400995638
    125 x_8_13                     1         0.0707935605811618
    127 x_9_1                      1                       0
    141 x_10_1                     1                       0
    155 x_11_1                     1         0.358329313500134
    169 x_12_1                     1                       0
    183 x_13_1                     1                       0
    197 y_1                        1                       0
    207 y_11                       1         0.672500059833995
    208 y_12                       1         0.460330937613874
    209 y_13                       1                       0
